; benchmark generated from python API
(set-info :status unknown)
(declare-fun x_day () Int)
(declare-fun x_month () Int)
(declare-fun x_year () Int)
(declare-fun x_epoch () Int)
(assert
 (let (($x426 (> x_month 2)))
 (let (($x638 (= (mod x_year 4) 0)))
 (let (($x273 (= (mod x_year 100) 0)))
 (let (($x679 (= (mod x_year 400) 0)))
 (let (($x3912 (ite $x679 true (ite $x273 false $x638))))
 (let (($x1580 (= x_month 9)))
 (let ((?x469 (ite $x1580 243 (ite (= x_month 10) 273 (ite (= x_month 11) 304 334)))))
 (let (($x399 (= x_month 6)))
 (let ((?x1198 (ite $x399 151 (ite (= x_month 7) 181 (ite (= x_month 8) 212 ?x469)))))
 (let (($x1789 (= x_month 4)))
 (let (($x185 (= x_month 3)))
 (let (($x248 (= x_month 2)))
 (let ((?x636 (ite $x248 31 (ite $x185 59 (ite $x1789 90 (ite (= x_month 5) 120 ?x1198))))))
 (let ((?x3945 (ite (= x_month 1) 0 ?x636)))
 (let ((?x420 (- (+ (* 365 (- x_year 1)) (div (- x_year 1) 4)) (div (- x_year 1) 100))))
 (let ((?x289 (+ (+ ?x420 (div (- x_year 1) 400)) (+ ?x3945 (ite (and $x3912 $x426) 1 0)))))
 (let (($x3906 (<= x_year 2400)))
 (let (($x590 (>= x_year 1600)))
 (let ((?x941 (ite (or $x1789 $x399 $x1580 (= x_month 11)) 30 31)))
 (let (($x444 (>= x_day 1)))
 (let (($x1167 (<= x_month 12)))
 (let (($x1264 (>= x_month 1)))
 (and $x1264 $x1167 $x444 (<= x_day (ite $x248 (ite $x3912 29 28) ?x941)) $x590 $x3906 (= x_epoch (+ ?x289 (- x_day 1)))))))))))))))))))))))))))
(assert
 (let (($x248 (= x_month 2)))
 (let (($x471 (= x_year 2000)))
 (let (($x1238 (and $x471 $x248 (>= x_day 28))))
 (or (> x_year 2000) (and $x471 (> x_month 2)) $x1238)))))
(assert
 (let (($x185 (= x_month 3)))
 (let (($x471 (= x_year 2000)))
 (let (($x610 (and $x471 $x185 (<= x_day 1))))
 (or (< x_year 2000) (and $x471 (< x_month 3)) $x610)))))
(assert
 (not (and (= x_year 2000) (= x_month 2) (= x_day 28))))
(assert
 (not (and (= x_year 2000) (= x_month 3) (= x_day 1))))
(check-sat)
